c at-most-one of 6 pidgeon in 5 holes
c p1@1 1
c p2@1 2
c p3@1 3
c p4@1 4
c p5@1 5
c p6@1 6
c p1@2 7
c p2@2 8
c p3@2 9
c p4@2 10
c p5@2 11
c p6@2 12
c p1@3 13
c p2@3 14
c p3@3 15
c p4@3 16
c p5@3 17
c p6@3 18
c p1@4 19
c p2@4 20
c p3@4 21
c p4@4 22
c p5@4 23
c p6@4 24
c p1@5 25
c p2@5 26
c p3@5 27
c p4@5 28
c p5@5 29
c p6@5 30
p cnf 30 81
-1 -2 0
-1 -3 0
-1 -4 0
-1 -5 0
-1 -6 0
-2 -3 0
-2 -4 0
-2 -5 0
-2 -6 0
-3 -4 0
-3 -5 0
-3 -6 0
-4 -5 0
-4 -6 0
-5 -6 0
-7 -8 0
-7 -9 0
-7 -10 0
-7 -11 0
-7 -12 0
-8 -9 0
-8 -10 0
-8 -11 0
-8 -12 0
-9 -10 0
-9 -11 0
-9 -12 0
-10 -11 0
-10 -12 0
-11 -12 0
-13 -14 0
-13 -15 0
-13 -16 0
-13 -17 0
-13 -18 0
-14 -15 0
-14 -16 0
-14 -17 0
-14 -18 0
-15 -16 0
-15 -17 0
-15 -18 0
-16 -17 0
-16 -18 0
-17 -18 0
-19 -20 0
-19 -21 0
-19 -22 0
-19 -23 0
-19 -24 0
-20 -21 0
-20 -22 0
-20 -23 0
-20 -24 0
-21 -22 0
-21 -23 0
-21 -24 0
-22 -23 0
-22 -24 0
-23 -24 0
-25 -26 0
-25 -27 0
-25 -28 0
-25 -29 0
-25 -30 0
-26 -27 0
-26 -28 0
-26 -29 0
-26 -30 0
-27 -28 0
-27 -29 0
-27 -30 0
-28 -29 0
-28 -30 0
-29 -30 0
1 7 13 19 25 0
2 8 14 20 26 0
3 9 15 21 27 0
4 10 16 22 28 0
5 11 17 23 29 0
6 12 18 24 30 0
